32 32
27
3 3 25 29
3 4 22 28
3 5 0 27
3 6 29 11
3 7 3 25
3 8 6 24
3 9 13 23
3 10 16 22
3 11 29 0
3 12 25 17
3 13 22 15
3 14 19 18
3 15 22 0
3 18 19 0
3 22 16 0
3 23 13 0
3 24 6 0
3 25 3 0
3 27 0 0
4 3 9 29
4 4 28 28
4 5 28 23
4 6 28 17
4 7 25 10
4 10 25 0
4 11 9 18
4 18 9 0
